This is Ipopt version 3.14.14, running with linear solver MUMPS 5.6.2.

Number of nonzeros in equality constraint Jacobian...:        2
Number of nonzeros in inequality constraint Jacobian.:        2
Number of nonzeros in Lagrangian Hessian.............:        0

Total number of variables............................:        2
                     variables with only lower bounds:        1
                variables with lower and upper bounds:        1
                     variables with only upper bounds:        0
Total number of equality constraints.................:        1
Total number of inequality constraints...............:        1
        inequality constraints with only lower bounds:        0
   inequality constraints with lower and upper bounds:        1
        inequality constraints with only upper bounds:        0

iter    objective    inf_pr   inf_du lg(mu)  ||d||  lg(rg) alpha_du alpha_pr  ls
   0  7.1166576e-02 1.43e+00 1.68e-03   0.0 0.00e+00    -  0.00e+00 0.00e+00   0
   1  5.0816897e-02 1.15e-01 1.09e+00  -0.9 1.35e-01    -  9.96e-01 1.00e+00h  1
   2  4.8849940e-02 1.05e-03 8.92e-02  -2.8 1.15e-02    -  9.97e-01 1.00e+00h  1
   3  4.8569532e-02 6.10e-05 2.96e-03  -3.6 6.15e-02    -  9.99e-01 1.00e+00h  1
   4  4.8187047e-02 1.30e-04 2.95e-04  -5.1 9.00e-02    -  1.00e+00 1.00e+00h  1
   5  4.8175074e-02 1.77e-07 4.01e-08  -7.2 4.00e-03    -  1.00e+00 1.00e+00h  1
   6  4.8174996e-02 6.15e-12 1.16e-10 -11.0 2.02e-05    -  1.00e+00 1.00e+00h  1

Number of Iterations....: 6

                                   (scaled)                 (unscaled)
Objective...............:   4.8174996331181455e-02    4.8174996331181455e-02
Dual infeasibility......:   1.1564534833224949e-10    1.1564534833224949e-10
Constraint violation....:   6.1461946643248666e-12    6.1461946643248666e-12
Variable bound violation:   0.0000000000000000e+00    0.0000000000000000e+00
Complementarity.........:   1.1794991648010553e-11    1.1794991648010553e-11
Overall NLP error.......:   1.1564534833224949e-10    1.1564534833224949e-10


Number of objective function evaluations             = 7
Number of objective gradient evaluations             = 7
Number of equality constraint evaluations            = 7
Number of inequality constraint evaluations          = 7
Number of equality constraint Jacobian evaluations   = 7
Number of inequality constraint Jacobian evaluations = 7
Number of Lagrangian Hessian evaluations             = 0
Total seconds in IPOPT                               = 1.688

EXIT: Optimal Solution Found.
